4 
5  04 17 41 57 
6  12 26 41 58 
7  13 28 43 58 
8  13 28 43 58 
9  13 28 43 
10  00 15 30 45 
11  00 15 30 45 
12  00 15 30 45 
13  00 16 31 46 
14  01 16 31 46 
15  00 14 29 44 59 
16  14 29 44 59 
17  14 29 44 59 
18  14 29 44 
19  00 14 29 44 59 
20  14 29 44 59 
21  14 29 59 
22  
23  
0 
